Version identifier: 20.1.0.0 | 2020-11-10 | 9bedb6d68
Tried aggregator 2 times.
MIP Presolve eliminated 653 rows and 357 columns.
MIP Presolve modified 1305 coefficients.
Aggregator did 84 substitutions.
Reduced MIP has 544 rows, 466 columns, and 1729 nonzeros.
Reduced MIP has 132 binaries, 334 generals, 0 SOSs, and 0 indicators.
Presolve time = 0.01 sec. (2.80 ticks)
Found incumbent of value 661.000000 after 0.01 sec. (4.35 ticks)
Probing fixed 14 vars, tightened 110 bounds.
Probing time = 0.00 sec. (0.41 ticks)
Tried aggregator 2 times.
Detecting symmetries...
MIP Presolve eliminated 209 rows and 17 columns.
MIP Presolve modified 41 coefficients.
Aggregator did 2 substitutions.
Reduced MIP has 333 rows, 447 columns, and 1085 nonzeros.
Reduced MIP has 167 binaries, 280 generals, 0 SOSs, and 0 indicators.
Presolve time = 0.00 sec. (1.42 ticks)
Probing time = 0.00 sec. (0.11 ticks)
Clique table members: 20.
MIP emphasis: balance optimality and feasibility.
MIP search method: dynamic search.
Parallel mode: deterministic, using up to 24 threads.
Root relaxation solution time = 0.00 sec. (1.14 ticks)

        Nodes                                         Cuts/
   Node  Left     Objective  IInf  Best Integer    Best Bound    ItCnt     Gap

*     0+    0                          661.0000        0.0000           100.00%
*     0+    0                           23.0000        0.0000           100.00%
      0     0        0.0000    29       23.0000        0.0000      134  100.00%
      0     0        2.0000    54       23.0000      Cuts: 63      219   91.30%
*     0+    0                           16.0000        2.0000            87.50%
      0     0        2.0000   121       16.0000      Cuts: 33      261   87.50%
*     0+    0                           13.0000        2.0000            84.62%
      0     0        2.0000   124       13.0000      Cuts: 14      291   84.62%
*     0+    0                           10.0000        2.0000            80.00%
      0     0        cutoff             10.0000       10.0000      291    0.00%
Elapsed time = 0.64 sec. (40.42 ticks, tree = 0.01 MB, solutions = 5)

Implied bound cuts applied:  8
Flow cuts applied:  4
Mixed integer rounding cuts applied:  4
Zero-half cuts applied:  18
Gomory fractional cuts applied:  7

Root node processing (before b&c):
  Real time             =    0.64 sec. (40.47 ticks)
Parallel b&c, 24 threads:
  Real time             =    0.00 sec. (0.00 ticks)
  Sync time (average)   =    0.00 sec.
  Wait time (average)   =    0.00 sec.
                          ------------
Total (root+branch&cut) =    0.64 sec. (40.47 ticks)

Solution status = Optimal
Solution LB = 10
Solution UB = 10
Runtime = 0.645261 seconds
	Command being timed: "/home/min/git_repos/CS598MEBProject/CNT-ILP/build/cnt -s 2 ./output/k6_n15/simC_c1_k6_n15_u3_s1_del04.input-left.cnp"
	User time (seconds): 11.30
	System time (seconds): 0.04
	Percent of CPU this job got: 1681%
	Elapsed (wall clock) time (h:mm:ss or m:ss): 0:00.67
	Average shared text size (kbytes): 0
	Average unshared data size (kbytes): 0
	Average stack size (kbytes): 0
	Average total size (kbytes): 0
	Maximum resident set size (kbytes): 50140
	Average resident set size (kbytes): 0
	Major (requiring I/O) page faults: 0
	Minor (reclaiming a frame) page faults: 9719
	Voluntary context switches: 2034
	Involuntary context switches: 1488
	Swaps: 0
	File system inputs: 0
	File system outputs: 16
	Socket messages sent: 0
	Socket messages received: 0
	Signals delivered: 0
	Page size (bytes): 4096
	Exit status: 0
